NAME : random_15_seed42
COMMENT : Generated random TSP instance with 15 cities
COMMENT : OPTIMAL_LENGTH = 32052.564453
COMMENT : OPTIMAL_TOUR = 0 12 4 1 6 10 14 9 2 7 11 8 13 3 5 0
TYPE : TSP
DIMENSION : 15
EDGE_WEIGHT_TYPE : EUC_2D
NODE_COORD_SECTION
1 3745.4011 9507.1426
2 7319.9390 5986.5850
3 1560.1864 1559.9452
4 580.8361 8661.7617
5 6011.1499 7080.7261
6 205.8449 9699.0986
7 8324.4268 2123.3911
8 1818.2496 1834.0450
9 3042.4226 5247.5645
10 4319.4502 2912.2913
11 6118.5288 1394.9387
12 2921.4465 3663.6187
13 4560.6997 7851.7598
14 1996.7379 5142.3442
15 5924.1455 464.5042
EOF
